173235822 5 0
479726626 8 0
605524109 5 0
1 -4 -8 0
243006540 4 0
616413924 4 0
589701218 -2 0
360936471 1 0
807396816 -9 0
601166910 -9 0
821670017 3 0
422244978 -9 0
398201044 6 0
716536597 8 0
619615909 6 0
120713007 -9 0
705910321 8 0
95718431 -9 0
657512569 5 0
758470347 3 0
160258779 5 0
1 -9 2 0
734918486 6 0
309157692 1 0
98086793 5 0
109253390 -2 0
80028837 5 0
813917810 -9 0
364903204 1 0
420740941 4 0
